maximize
OBJ:100x0 + 100x1 + 100x2 + 100x3 + 100x4 + 100x5 + 100x6 + 100x7 + 100x8 + 100x9 + 100x10 + 100x11 + 100x12 + 100x13 + 100x14 + 100x15 + 100x16 + 100x17 + 100x18 + 100x19 + 100x20 + 100x21 + 100x22 + 100x23 + 100x24 + 100x25 + 100x26 + 100x27 + 100x28 + 100x29 + 100x30 + 100x31 + 100x32 + 100x33 + 100x34 + 100x35 + 100x36 + 100x37 + 100x38 + 100x39 + 100x40 + 100x41 + 100x42 + 100x43 + 100x44 + 100x45 + 100x46 + 100x47 + 100x48 + 100x49 + 100x50 + 100x51 + 100x52 + 100x53 + 100x54 + 100x55 + 100x56 + 100x57 + 100x58 + 100x59 + 100x60 + 100x61 + 100x62 + 100x63 + 100x64 + 100x65 + 100x66 + 100x67 + 100x68 + 100x69 - y47_53 - y55_66 - y67_68 - y7_26 - y7_35 - y5_65 - y8_9 - y8_18 - y29_50 - y11_23 - y29_59 - y21_55 - y21_64 - y41_42 - y2_32 - y25_34 - y10_45 - y25_43 - y3_15 - y14_15 - y22_28 - y2_68 - y35_65 - y55_61 - y18_21 - y47_57 - y17_53 - y7_30 - y9_49 - y36_66 - y9_58 - y5_69 - y9_67 - y21_32 - y40_45 - y48_58 - y21_41 - y29_54 - y40_54 - y21_50 - y21_68 - y2_27 - y25_29 - y44_51 - y22_32 - y3_28 - y32_64 - y13_60 - y24_60 - y14_37 - y16_56 - y1_67 - y24_69 - y28_39 - y36_61 - y47_61 - y5_55 - y9_53 - y17_66 - y29_31 - y21_27 - y6_38 - y48_53 - y21_36 - y6_47 - y29_49 - y40_58 - y10_26 - y54_60 - y10_35 - y20_67 - y25_42 - y3_5 - y51_54 - y32_50 - y35_46 - y32_59 - y43_59 - y43_68 - y1_62 - y17_43 - y36_65 - y9_48 - y28_61 - y21_22 - y29_35 - y9_66 - y50_67 - y21_40 - y39_48 - y39_57 - y2_17 - y20_53 - y2_26 - y25_28 - y3_9 - y32_45 - y35_41 - y32_54 - y16_37 - y1_48 - y35_50 - y16_46 - y24_59 - y35_59 - y1_66 - y13_68 - y65_69 - y5_27 - y36_42 - y9_25 - y36_51 - y5_54 - y17_56 - y5_63 - y29_30 - y61_62 - y42_58 - y21_35 - y39_43 - y2_3 - y20_39 - y39_52 - y31_48 - y10_25 - y39_61 - y2_21 - y31_57 - y23_53 - y12_62 - y4_58 - y24_45 - y35_45 - y24_63 - y35_63 - y17_24 - y57_60 - y5_40 - y28_42 - y27_55 - y50_57 - y27_64 - y50_66 - y61_66 - y8_60 - y0_56 - y11_56 - y20_34 - y20_43 - y31_43 - y23_57 - y32_35 - y12_66 - y64_67 - y16_36 - y16_45 - y46_55 - y65_68 - y28_37 - y15_67 - y38_69 - y27_59 - y50_61 - y30_55 - y0_51 - y42_66 - y20_29 - y11_60 - y23_34 - y4_39 - y13_17 - y13_26 - y32_39 - y1_33 - y24_35 - y13_44 - y15_53 - y26_53 - y9_28 - y15_62 - y5_39 - y38_64 - y27_36 - y7_67 - y19_41 - y42_43 - y42_52 - y0_46 - y42_61 - y20_24 - y0_55 - y11_55 - y12_20 - y20_33 - y39_46 - y12_56 - y13_21 - y45_53 - y24_30 - y16_26 - y34_62 - y45_62 - y1_46 - y46_54 - y26_48 - y38_50 - y7_53 - y49_68 - y27_31 - y19_27 - y8_36 - y0_32 - y30_45 - y0_41 - y11_41 - y19_54 - y30_54 - y30_63 - y60_64 - y12_24 - y41_60 - y11_68 - y52_69 - y4_29 - y23_42 - y4_38 - y34_39 - y13_16 - y45_48 - y16_21 - y34_57 - y14_69 - y46_49 - y26_43 - y8_13 - y15_61 - y18_57 - y19_22 - y11_18 - y8_31 - y8_40 - y30_40 - y0_36 - y30_49 - y11_45 - y4_6 - y11_54 - y4_15 - y23_28 - y44_60 - y25_56 - y1_9 - y22_41 - y34_43 - y1_18 - y3_46 - y14_46 - y45_61 - y3_55 - y37_57 - y22_68 - y37_66 - y15_29 - y15_38 - y7_34 - y18_34 - y38_49 - y7_43 - y26_56 - y27_30 - y27_39 - y11_22 - y30_35 - y40_67 - y30_44 - y21_63 - y12_14 - y44_46 - y41_59 - y10_53 - y25_51 - y4_28 - y3_32 - y34_47 - y3_41 - y37_43 - y22_54 - y37_61 - y18_20 - y7_29 - y18_38 - y18_47 - y8_12 - y18_56 - y8_21 - y19_21 - y48_57 - y52_54 - y60_67 - y4_14 - y33_50 - y41_63 - y25_46 - y52_63 - y33_59 - y44_59 - y10_66 - y44_68 - y2_62 - y3_27 - y3_36 - y37_38 - y14_45 - y22_58 - y3_54 - y15_19 - y15_28 - y18_24 - y26_37 - y18_33 - y7_42 - y8_16 - y40_48 - y19_25 - y40_57 - y21_53 - y11_30 - y6_64 - y63_68 - y21_62 - y4_9 - y41_58 - y25_50 - y3_13 - y10_61 - y51_62 - y25_59 - y3_22 - y14_31 - y66_69 - y3_40 - y14_40 - y37_42 - y3_49 - y14_49 - y55_59 - y18_19 - y18_28 - y17_60 - y28_60 - y9_56 - y48_56 - y0_16 - y11_16 - y29_52 - y21_48 - y40_52 - y10_20 - y6_68 - y21_66 - y2_25 - y10_38 - y44_49 - y25_45 - y3_8 - y3_17 - y22_30 - y51_66 - y24_58 - y14_35 - y3_44 - y14_44 - y17_46 - y47_59 - y9_42 - y59_61 - y36_68 - y17_64 - y9_60 - y0_2 - y21_34 - y40_47 - y21_43 - y6_54 - y29_56 - y40_56 - y21_61 - y10_33 - y2_29 - y25_31 - y10_42 - y33_44 - y2_38 - y10_51 - y3_12 - y3_21 - y13_53 - y16_67 - y7_9 - y36_45 - y17_41 - y28_41 - y36_54 - y9_37 - y17_50 - y36_63 - y47_63 - y58_60 - y9_55 - y28_68 - y21_29 - y6_40 - y40_51 - y2_15 - y10_28 - y20_60 - y54_62 - y31_69 - y32_34 - y51_56 - y13_39 - y32_52 - y24_48 - y3_25 - y1_64 - y24_66 - y9_32 - y17_45 - y6_8 - y17_54 - y9_50 - y9_59 - y50_69 - y6_44 - y42_65 - y39_50 - y10_23 - y2_19 - y31_55 - y10_32 - y12_51 - y54_66 - y12_60 - y13_25 - y3_11 - y32_47 - y43_56 - y1_50 - y13_52 - y24_52 - y16_48 - y35_52 - y24_61 - y16_66 - y9_27 - y5_38 - y28_40 - y6_12 - y6_21 - y50_55 - y50_64 - y6_39 - y8_58 - y19_67 - y42_69 - y11_63 - y31_41 - y62_65 - y54_61 - y12_55 - y31_68 - y1_27 - y16_25 - y1_36 - y1_45 - y13_47 - y1_54 - y24_56 - y46_53 - y65_66 - y9_13 - y5_24 - y46_62 - y57_62 - y49_58 - y28_35 - y6_7 - y6_16 - y27_48 - y6_25 - y58_63 - y50_59 - y19_53 - y0_49 - y19_62 - y12_32 - y39_58 - y23_41 - y2_18 - y4_37 - y31_54 - y12_59 - y4_55 - y32_37 - y12_68 - y1_31 - y23_68 - y43_46 - y34_65 - y24_42 - y35_42 - y16_38 - y1_49 - y5_10 - y1_58 - y5_19 - y17_21 - y49_53 - y5_28 - y17_30 - y28_30 - y26_60 - y46_66 - y6_11 - y18_65 - y8_39 - y19_39 - y27_61 - y11_44 - y50_63 - y8_57 - y20_22 - y30_57 - y12_27 - y20_40 - y31_49 - y4_32 - y23_45 - y20_58 - y12_54 - y1_17 - y23_54 - y53_55 - y1_26 - y24_28 - y34_60 - y45_60 - y22_67 - y56_69 - y1_44 - y37_65 - y16_42 - y9_12 - y15_46 - y5_23 - y57_61 - y26_55 - y7_51 - y15_64 - y49_66 - y7_60 - y27_38 - y18_69 - y8_43 - y30_43 - y42_45 - y0_48 - y11_48 - y8_61 - y19_61 - y30_61 - y11_57 - y31_35 - y4_18 - y0_66 - y52_67 - y1_3 - y34_46 - y13_23 - y16_19 - y64_68 - y37_51 - y45_64 - y56_64 - y1_39 - y3_58 - y37_60 - y37_69 - y46_56 - y9_16 - y15_50 - y57_65 - y7_46 - y18_46 - y15_59 - y49_61 - y8_20 - y15_68 - y19_20 - y26_68 - y27_33 - y27_42 - y8_38 - y19_38 - y0_34 - y11_34 - y8_47 - y19_47 - y42_49 - y0_43 - y11_43 - y20_21 - y11_52 - y41_53 - y11_61 - y41_62 - y33_58 - y10_65 - y33_67 - y23_44 - y25_63 - y34_41 - y53_54 - y56_59 - y3_53 - y45_68 - y26_36 - y5_13 - y7_32 - y26_45 - y7_41 - y18_41 - y15_54 - y8_15 - y27_28 - y8_24 - y7_68 - y18_68 - y19_33 - y27_46 - y30_33 - y8_42 - y19_51 - y30_51 - y60_61 - y52_57 - y33_53 - y44_53 - y41_66 - y44_62 - y2_65 - y25_67 - y34_45 - y37_41 - y3_48 - y56_63 - y14_66 - y67_69 - y37_49 - y26_40 - y18_36 - y26_49 - y26_58 - y18_54 - y48_55 - y18_63 - y8_28 - y48_64 - y11_24 - y19_37 - y0_33 - y6_67 - y29_69 - y44_48 - y41_61 - y25_44 - y10_55 - y44_57 - y10_64 - y1_6 - y3_34 - y34_49 - y3_43 - y14_43 - y45_58 - y56_58 - y14_61 - y15_26 - y18_22 - y15_35 - y7_31 - y18_31 - y15_44 - y47_67 - y9_68 - y6_53 - y40_55 - y30_32 - y0_28 - y11_28 - y21_69 - y25_30 - y4_16 - y25_48 - y33_61 - y2_55 - y3_20 - y3_29 - y34_44 - y3_38 - y14_38 - y37_40 - y3_47 - y7_8
 Subject to
C1: x0+x2-y0_2 <=1 
C2: x0+x5 <=1 
C3: x0+x6 <=1 
C4: x0+x7 <=1 
C5: x0+x9 <=1 
C6: x0+x10 <=1 
C7: x0+x11 <=1 
C8: x0+x12 <=1 
C9: x0+x13 <=1 
C10: x0+x15 <=1 
C11: x0+x16-y0_16 <=1 
C12: x0+x21 <=1 
C13: x0+x24 <=1 
C14: x0+x25 <=1 
C15: x0+x26 <=1 
C16: x0+x28-y0_28 <=1 
C17: x0+x29 <=1 
C18: x0+x30 <=1 
C19: x0+x32-y0_32 <=1 
C20: x0+x33-y0_33 <=1 
C21: x0+x34-y0_34 <=1 
C22: x0+x36-y0_36 <=1 
C23: x0+x38 <=1 
C24: x0+x39 <=1 
C25: x0+x41-y0_41 <=1 
C26: x0+x42 <=1 
C27: x0+x43-y0_43 <=1 
C28: x0+x46-y0_46 <=1 
C29: x0+x47 <=1 
C30: x0+x48-y0_48 <=1 
C31: x0+x49-y0_49 <=1 
C32: x0+x51-y0_51 <=1 
C33: x0+x54 <=1 
C34: x0+x55-y0_55 <=1 
C35: x0+x56-y0_56 <=1 
C36: x0+x58 <=1 
C37: x0+x60 <=1 
C38: x0+x61 <=1 
C39: x0+x62 <=1 
C40: x0+x63 <=1 
C41: x0+x64 <=1 
C42: x0+x66-y0_66 <=1 
C43: x0+x67 <=1 
C44: x0+x68 <=1 
C45: x1+x2 <=1 
C46: x1+x3-y1_3 <=1 
C47: x1+x5 <=1 
C48: x1+x6-y1_6 <=1 
C49: x1+x9-y1_9 <=1 
C50: x1+x10 <=1 
C51: x1+x14 <=1 
C52: x1+x17-y1_17 <=1 
C53: x1+x18-y1_18 <=1 
C54: x1+x19 <=1 
C55: x1+x20 <=1 
C56: x1+x21 <=1 
C57: x1+x25 <=1 
C58: x1+x26-y1_26 <=1 
C59: x1+x27-y1_27 <=1 
C60: x1+x29 <=1 
C61: x1+x30 <=1 
C62: x1+x31-y1_31 <=1 
C63: x1+x33-y1_33 <=1 
C64: x1+x34 <=1 
C65: x1+x36-y1_36 <=1 
C66: x1+x38 <=1 
C67: x1+x39-y1_39 <=1 
C68: x1+x41 <=1 
C69: x1+x43 <=1 
C70: x1+x44-y1_44 <=1 
C71: x1+x45-y1_45 <=1 
C72: x1+x46-y1_46 <=1 
C73: x1+x48-y1_48 <=1 
C74: x1+x49-y1_49 <=1 
C75: x1+x50-y1_50 <=1 
C76: x1+x51 <=1 
C77: x1+x53 <=1 
C78: x1+x54-y1_54 <=1 
C79: x1+x55 <=1 
C80: x1+x57 <=1 
C81: x1+x58-y1_58 <=1 
C82: x1+x61 <=1 
C83: x1+x62-y1_62 <=1 
C84: x1+x64-y1_64 <=1 
C85: x1+x65 <=1 
C86: x1+x66-y1_66 <=1 
C87: x1+x67-y1_67 <=1 
C88: x1+x69 <=1 
C89: x2+x3-y2_3 <=1 
C90: x2+x5 <=1 
C91: x2+x6 <=1 
C92: x2+x8 <=1 
C93: x2+x10 <=1 
C94: x2+x11 <=1 
C95: x2+x12 <=1 
C96: x2+x15-y2_15 <=1 
C97: x2+x17-y2_17 <=1 
C98: x2+x18-y2_18 <=1 
C99: x2+x19-y2_19 <=1 
C100: x2+x20 <=1 
C101: x2+x21-y2_21 <=1 
C102: x2+x22 <=1 
C103: x2+x24 <=1 
C104: x2+x25-y2_25 <=1 
C105: x2+x26-y2_26 <=1 
C106: x2+x27-y2_27 <=1 
C107: x2+x29-y2_29 <=1 
C108: x2+x30 <=1 
C109: x2+x31 <=1 
C110: x2+x32-y2_32 <=1 
C111: x2+x34 <=1 
C112: x2+x38-y2_38 <=1 
C113: x2+x39 <=1 
C114: x2+x41 <=1 
C115: x2+x42 <=1 
C116: x2+x45 <=1 
C117: x2+x50 <=1 
C118: x2+x51 <=1 
C119: x2+x55-y2_55 <=1 
C120: x2+x57 <=1 
C121: x2+x59 <=1 
C122: x2+x62-y2_62 <=1 
C123: x2+x63 <=1 
C124: x2+x65-y2_65 <=1 
C125: x2+x67 <=1 
C126: x2+x68-y2_68 <=1 
C127: x2+x69 <=1 
C128: x3+x4 <=1 
C129: x3+x5-y3_5 <=1 
C130: x3+x8-y3_8 <=1 
C131: x3+x9-y3_9 <=1 
C132: x3+x11-y3_11 <=1 
C133: x3+x12-y3_12 <=1 
C134: x3+x13-y3_13 <=1 
C135: x3+x15-y3_15 <=1 
C136: x3+x16 <=1 
C137: x3+x17-y3_17 <=1 
C138: x3+x20-y3_20 <=1 
C139: x3+x21-y3_21 <=1 
C140: x3+x22-y3_22 <=1 
C141: x3+x23 <=1 
C142: x3+x24 <=1 
C143: x3+x25-y3_25 <=1 
C144: x3+x26 <=1 
C145: x3+x27-y3_27 <=1 
C146: x3+x28-y3_28 <=1 
C147: x3+x29-y3_29 <=1 
C148: x3+x30 <=1 
C149: x3+x32-y3_32 <=1 
C150: x3+x34-y3_34 <=1 
C151: x3+x36-y3_36 <=1 
C152: x3+x38-y3_38 <=1 
C153: x3+x40-y3_40 <=1 
C154: x3+x41-y3_41 <=1 
C155: x3+x42 <=1 
C156: x3+x43-y3_43 <=1 
C157: x3+x44-y3_44 <=1 
C158: x3+x46-y3_46 <=1 
C159: x3+x47-y3_47 <=1 
C160: x3+x48-y3_48 <=1 
C161: x3+x49-y3_49 <=1 
C162: x3+x52 <=1 
C163: x3+x53-y3_53 <=1 
C164: x3+x54-y3_54 <=1 
C165: x3+x55-y3_55 <=1 
C166: x3+x58-y3_58 <=1 
C167: x3+x60 <=1 
C168: x3+x62 <=1 
C169: x3+x64 <=1 
C170: x3+x65 <=1 
C171: x3+x68 <=1 
C172: x3+x69 <=1 
C173: x4+x5 <=1 
C174: x4+x6-y4_6 <=1 
C175: x4+x8 <=1 
C176: x4+x9-y4_9 <=1 
C177: x4+x10 <=1 
C178: x4+x14-y4_14 <=1 
C179: x4+x15-y4_15 <=1 
C180: x4+x16-y4_16 <=1 
C181: x4+x17 <=1 
C182: x4+x18-y4_18 <=1 
C183: x4+x20 <=1 
C184: x4+x24 <=1 
C185: x4+x25 <=1 
C186: x4+x28-y4_28 <=1 
C187: x4+x29-y4_29 <=1 
C188: x4+x31 <=1 
C189: x4+x32-y4_32 <=1 
C190: x4+x33 <=1 
C191: x4+x37-y4_37 <=1 
C192: x4+x38-y4_38 <=1 
C193: x4+x39-y4_39 <=1 
C194: x4+x41 <=1 
C195: x4+x45 <=1 
C196: x4+x47 <=1 
C197: x4+x48 <=1 
C198: x4+x52 <=1 
C199: x4+x55-y4_55 <=1 
C200: x4+x56 <=1 
C201: x4+x57 <=1 
C202: x4+x58-y4_58 <=1 
C203: x4+x63 <=1 
C204: x4+x64 <=1 
C205: x4+x66 <=1 
C206: x4+x69 <=1 
C207: x5+x8 <=1 
C208: x5+x10-y5_10 <=1 
C209: x5+x13-y5_13 <=1 
C210: x5+x14 <=1 
C211: x5+x15 <=1 
C212: x5+x19-y5_19 <=1 
C213: x5+x21 <=1 
C214: x5+x23-y5_23 <=1 
C215: x5+x24-y5_24 <=1 
C216: x5+x27-y5_27 <=1 
C217: x5+x28-y5_28 <=1 
C218: x5+x30 <=1 
C219: x5+x31 <=1 
C220: x5+x34 <=1 
C221: x5+x37 <=1 
C222: x5+x38-y5_38 <=1 
C223: x5+x39-y5_39 <=1 
C224: x5+x40-y5_40 <=1 
C225: x5+x43 <=1 
C226: x5+x44 <=1 
C227: x5+x47 <=1 
C228: x5+x49 <=1 
C229: x5+x50 <=1 
C230: x5+x53 <=1 
C231: x5+x54-y5_54 <=1 
C232: x5+x55-y5_55 <=1 
C233: x5+x57 <=1 
C234: x5+x59 <=1 
C235: x5+x63-y5_63 <=1 
C236: x5+x65-y5_65 <=1 
C237: x5+x66 <=1 
C238: x5+x67 <=1 
C239: x5+x68 <=1 
C240: x5+x69-y5_69 <=1 
C241: x6+x7-y6_7 <=1 
C242: x6+x8-y6_8 <=1 
C243: x6+x11-y6_11 <=1 
C244: x6+x12-y6_12 <=1 
C245: x6+x16-y6_16 <=1 
C246: x6+x17 <=1 
C247: x6+x19 <=1 
C248: x6+x21-y6_21 <=1 
C249: x6+x23 <=1 
C250: x6+x25-y6_25 <=1 
C251: x6+x28 <=1 
C252: x6+x31 <=1 
C253: x6+x36 <=1 
C254: x6+x37 <=1 
C255: x6+x38-y6_38 <=1 
C256: x6+x39-y6_39 <=1 
C257: x6+x40-y6_40 <=1 
C258: x6+x44-y6_44 <=1 
C259: x6+x45 <=1 
C260: x6+x47-y6_47 <=1 
C261: x6+x49 <=1 
C262: x6+x50 <=1 
C263: x6+x51 <=1 
C264: x6+x53-y6_53 <=1 
C265: x6+x54-y6_54 <=1 
C266: x6+x55 <=1 
C267: x6+x56 <=1 
C268: x6+x57 <=1 
C269: x6+x58 <=1 
C270: x6+x64-y6_64 <=1 
C271: x6+x65 <=1 
C272: x6+x66 <=1 
C273: x6+x67-y6_67 <=1 
C274: x6+x68-y6_68 <=1 
C275: x6+x69 <=1 
C276: x7+x8-y7_8 <=1 
C277: x7+x9-y7_9 <=1 
C278: x7+x10 <=1 
C279: x7+x11 <=1 
C280: x7+x12 <=1 
C281: x7+x14 <=1 
C282: x7+x16 <=1 
C283: x7+x23 <=1 
C284: x7+x26-y7_26 <=1 
C285: x7+x27 <=1 
C286: x7+x28 <=1 
C287: x7+x29-y7_29 <=1 
C288: x7+x30-y7_30 <=1 
C289: x7+x31-y7_31 <=1 
C290: x7+x32-y7_32 <=1 
C291: x7+x33 <=1 
C292: x7+x34-y7_34 <=1 
C293: x7+x35-y7_35 <=1 
C294: x7+x41-y7_41 <=1 
C295: x7+x42-y7_42 <=1 
C296: x7+x43-y7_43 <=1 
C297: x7+x45 <=1 
C298: x7+x46-y7_46 <=1 
C299: x7+x47 <=1 
C300: x7+x51-y7_51 <=1 
C301: x7+x53-y7_53 <=1 
C302: x7+x54 <=1 
C303: x7+x60-y7_60 <=1 
C304: x7+x63 <=1 
C305: x7+x67-y7_67 <=1 
C306: x7+x68-y7_68 <=1 
C307: x7+x69 <=1 
C308: x8+x9-y8_9 <=1 
C309: x8+x12-y8_12 <=1 
C310: x8+x13-y8_13 <=1 
C311: x8+x15-y8_15 <=1 
C312: x8+x16-y8_16 <=1 
C313: x8+x17 <=1 
C314: x8+x18-y8_18 <=1 
C315: x8+x20-y8_20 <=1 
C316: x8+x21-y8_21 <=1 
C317: x8+x23 <=1 
C318: x8+x24-y8_24 <=1 
C319: x8+x26 <=1 
C320: x8+x28-y8_28 <=1 
C321: x8+x30 <=1 
C322: x8+x31-y8_31 <=1 
C323: x8+x32 <=1 
C324: x8+x35 <=1 
C325: x8+x36-y8_36 <=1 
C326: x8+x37 <=1 
C327: x8+x38-y8_38 <=1 
C328: x8+x39-y8_39 <=1 
C329: x8+x40-y8_40 <=1 
C330: x8+x41 <=1 
C331: x8+x42-y8_42 <=1 
C332: x8+x43-y8_43 <=1 
C333: x8+x44 <=1 
C334: x8+x47-y8_47 <=1 
C335: x8+x51 <=1 
C336: x8+x56 <=1 
C337: x8+x57-y8_57 <=1 
C338: x8+x58-y8_58 <=1 
C339: x8+x60-y8_60 <=1 
C340: x8+x61-y8_61 <=1 
C341: x8+x63 <=1 
C342: x8+x65 <=1 
C343: x8+x67 <=1 
C344: x8+x68 <=1 
C345: x9+x10 <=1 
C346: x9+x12-y9_12 <=1 
C347: x9+x13-y9_13 <=1 
C348: x9+x14 <=1 
C349: x9+x15 <=1 
C350: x9+x16-y9_16 <=1 
C351: x9+x17 <=1 
C352: x9+x18 <=1 
C353: x9+x19 <=1 
C354: x9+x21 <=1 
C355: x9+x22 <=1 
C356: x9+x23 <=1 
C357: x9+x25-y9_25 <=1 
C358: x9+x26 <=1 
C359: x9+x27-y9_27 <=1 
C360: x9+x28-y9_28 <=1 
C361: x9+x29 <=1 
C362: x9+x30 <=1 
C363: x9+x32-y9_32 <=1 
C364: x9+x34 <=1 
C365: x9+x36 <=1 
C366: x9+x37-y9_37 <=1 
C367: x9+x38 <=1 
C368: x9+x39 <=1 
C369: x9+x40 <=1 
C370: x9+x41 <=1 
C371: x9+x42-y9_42 <=1 
C372: x9+x45 <=1 
C373: x9+x47 <=1 
C374: x9+x48-y9_48 <=1 
C375: x9+x49-y9_49 <=1 
C376: x9+x50-y9_50 <=1 
C377: x9+x53-y9_53 <=1 
C378: x9+x55-y9_55 <=1 
C379: x9+x56-y9_56 <=1 
C380: x9+x58-y9_58 <=1 
C381: x9+x59-y9_59 <=1 
C382: x9+x60-y9_60 <=1 
C383: x9+x63 <=1 
C384: x9+x64 <=1 
C385: x9+x65 <=1 
C386: x9+x66-y9_66 <=1 
C387: x9+x67-y9_67 <=1 
C388: x9+x68-y9_68 <=1 
C389: x9+x69 <=1 
C390: x10+x11 <=1 
C391: x10+x13 <=1 
C392: x10+x14 <=1 
C393: x10+x18 <=1 
C394: x10+x19 <=1 
C395: x10+x20-y10_20 <=1 
C396: x10+x23-y10_23 <=1 
C397: x10+x25-y10_25 <=1 
C398: x10+x26-y10_26 <=1 
C399: x10+x27 <=1 
C400: x10+x28-y10_28 <=1 
C401: x10+x29 <=1 
C402: x10+x32-y10_32 <=1 
C403: x10+x33-y10_33 <=1 
C404: x10+x35-y10_35 <=1 
C405: x10+x38-y10_38 <=1 
C406: x10+x42-y10_42 <=1 
C407: x10+x45-y10_45 <=1 
C408: x10+x46 <=1 
C409: x10+x47 <=1 
C410: x10+x49 <=1 
C411: x10+x51-y10_51 <=1 
C412: x10+x53-y10_53 <=1 
C413: x10+x55-y10_55 <=1 
C414: x10+x56 <=1 
C415: x10+x60 <=1 
C416: x10+x61-y10_61 <=1 
C417: x10+x63 <=1 
C418: x10+x64-y10_64 <=1 
C419: x10+x65-y10_65 <=1 
C420: x10+x66-y10_66 <=1 
C421: x10+x68 <=1 
C422: x11+x12 <=1 
C423: x11+x16-y11_16 <=1 
C424: x11+x18-y11_18 <=1 
C425: x11+x21 <=1 
C426: x11+x22-y11_22 <=1 
C427: x11+x23-y11_23 <=1 
C428: x11+x24-y11_24 <=1 
C429: x11+x25 <=1 
C430: x11+x26 <=1 
C431: x11+x28-y11_28 <=1 
C432: x11+x30-y11_30 <=1 
C433: x11+x33 <=1 
C434: x11+x34-y11_34 <=1 
C435: x11+x37 <=1 
C436: x11+x38 <=1 
C437: x11+x41-y11_41 <=1 
C438: x11+x43-y11_43 <=1 
C439: x11+x44-y11_44 <=1 
C440: x11+x45-y11_45 <=1 
C441: x11+x47 <=1 
C442: x11+x48-y11_48 <=1 
C443: x11+x50 <=1 
C444: x11+x51 <=1 
C445: x11+x52-y11_52 <=1 
C446: x11+x54-y11_54 <=1 
C447: x11+x55-y11_55 <=1 
C448: x11+x56-y11_56 <=1 
C449: x11+x57-y11_57 <=1 
C450: x11+x58 <=1 
C451: x11+x60-y11_60 <=1 
C452: x11+x61-y11_61 <=1 
C453: x11+x62 <=1 
C454: x11+x63-y11_63 <=1 
C455: x11+x64 <=1 
C456: x11+x67 <=1 
C457: x11+x68-y11_68 <=1 
C458: x12+x14-y12_14 <=1 
C459: x12+x15 <=1 
C460: x12+x18 <=1 
C461: x12+x20-y12_20 <=1 
C462: x12+x21 <=1 
C463: x12+x23 <=1 
C464: x12+x24-y12_24 <=1 
C465: x12+x27-y12_27 <=1 
C466: x12+x32-y12_32 <=1 
C467: x12+x34 <=1 
C468: x12+x35 <=1 
C469: x12+x37 <=1 
C470: x12+x38 <=1 
C471: x12+x40 <=1 
C472: x12+x41 <=1 
C473: x12+x46 <=1 
C474: x12+x49 <=1 
C475: x12+x51-y12_51 <=1 
C476: x12+x52 <=1 
C477: x12+x53 <=1 
C478: x12+x54-y12_54 <=1 
C479: x12+x55-y12_55 <=1 
C480: x12+x56-y12_56 <=1 
C481: x12+x57 <=1 
C482: x12+x58 <=1 
C483: x12+x59-y12_59 <=1 
C484: x12+x60-y12_60 <=1 
C485: x12+x62-y12_62 <=1 
C486: x12+x63 <=1 
C487: x12+x64 <=1 
C488: x12+x66-y12_66 <=1 
C489: x12+x68-y12_68 <=1 
C490: x13+x15 <=1 
C491: x13+x16-y13_16 <=1 
C492: x13+x17-y13_17 <=1 
C493: x13+x21-y13_21 <=1 
C494: x13+x22 <=1 
C495: x13+x23-y13_23 <=1 
C496: x13+x25-y13_25 <=1 
C497: x13+x26-y13_26 <=1 
C498: x13+x27 <=1 
C499: x13+x29 <=1 
C500: x13+x31 <=1 
C501: x13+x37 <=1 
C502: x13+x38 <=1 
C503: x13+x39-y13_39 <=1 
C504: x13+x40 <=1 
C505: x13+x41 <=1 
C506: x13+x44-y13_44 <=1 
C507: x13+x47-y13_47 <=1 
C508: x13+x48 <=1 
C509: x13+x50 <=1 
C510: x13+x52-y13_52 <=1 
C511: x13+x53-y13_53 <=1 
C512: x13+x56 <=1 
C513: x13+x57 <=1 
C514: x13+x60-y13_60 <=1 
C515: x13+x61 <=1 
C516: x13+x63 <=1 
C517: x13+x65 <=1 
C518: x13+x68-y13_68 <=1 
C519: x14+x15-y14_15 <=1 
C520: x14+x16 <=1 
C521: x14+x20 <=1 
C522: x14+x22 <=1 
C523: x14+x23 <=1 
C524: x14+x26 <=1 
C525: x14+x27 <=1 
C526: x14+x30 <=1 
C527: x14+x31-y14_31 <=1 
C528: x14+x35-y14_35 <=1 
C529: x14+x37-y14_37 <=1 
C530: x14+x38-y14_38 <=1 
C531: x14+x40-y14_40 <=1 
C532: x14+x42 <=1 
C533: x14+x43-y14_43 <=1 
C534: x14+x44-y14_44 <=1 
C535: x14+x45-y14_45 <=1 
C536: x14+x46-y14_46 <=1 
C537: x14+x49-y14_49 <=1 
C538: x14+x52 <=1 
C539: x14+x55 <=1 
C540: x14+x60 <=1 
C541: x14+x61-y14_61 <=1 
C542: x14+x62 <=1 
C543: x14+x64 <=1 
C544: x14+x66-y14_66 <=1 
C545: x14+x67 <=1 
C546: x14+x69-y14_69 <=1 
C547: x15+x19-y15_19 <=1 
C548: x15+x21 <=1 
C549: x15+x23 <=1 
C550: x15+x26-y15_26 <=1 
C551: x15+x27 <=1 
C552: x15+x28-y15_28 <=1 
C553: x15+x29-y15_29 <=1 
C554: x15+x31 <=1 
C555: x15+x32 <=1 
C556: x15+x35-y15_35 <=1 
C557: x15+x38-y15_38 <=1 
C558: x15+x39 <=1 
C559: x15+x43 <=1 
C560: x15+x44-y15_44 <=1 
C561: x15+x46-y15_46 <=1 
C562: x15+x47 <=1 
C563: x15+x48 <=1 
C564: x15+x50-y15_50 <=1 
C565: x15+x52 <=1 
C566: x15+x53-y15_53 <=1 
C567: x15+x54-y15_54 <=1 
C568: x15+x55 <=1 
C569: x15+x56 <=1 
C570: x15+x57 <=1 
C571: x15+x58 <=1 
C572: x15+x59-y15_59 <=1 
C573: x15+x61-y15_61 <=1 
C574: x15+x62-y15_62 <=1 
C575: x15+x64-y15_64 <=1 
C576: x15+x66 <=1 
C577: x15+x67-y15_67 <=1 
C578: x15+x68-y15_68 <=1 
C579: x15+x69 <=1 
C580: x16+x17 <=1 
C581: x16+x18 <=1 
C582: x16+x19-y16_19 <=1 
C583: x16+x21-y16_21 <=1 
C584: x16+x23 <=1 
C585: x16+x25-y16_25 <=1 
C586: x16+x26-y16_26 <=1 
C587: x16+x31 <=1 
C588: x16+x35 <=1 
C589: x16+x36-y16_36 <=1 
C590: x16+x37-y16_37 <=1 
C591: x16+x38-y16_38 <=1 
C592: x16+x40 <=1 
C593: x16+x42-y16_42 <=1 
C594: x16+x44 <=1 
C595: x16+x45-y16_45 <=1 
C596: x16+x46-y16_46 <=1 
C597: x16+x48-y16_48 <=1 
C598: x16+x49 <=1 
C599: x16+x50 <=1 
C600: x16+x52 <=1 
C601: x16+x56-y16_56 <=1 
C602: x16+x57 <=1 
C603: x16+x58 <=1 
C604: x16+x59 <=1 
C605: x16+x63 <=1 
C606: x16+x66-y16_66 <=1 
C607: x16+x67-y16_67 <=1 
C608: x16+x69 <=1 
C609: x17+x19 <=1 
C610: x17+x20 <=1 
C611: x17+x21-y17_21 <=1 
C612: x17+x22 <=1 
C613: x17+x24-y17_24 <=1 
C614: x17+x30-y17_30 <=1 
C615: x17+x32 <=1 
C616: x17+x37 <=1 
C617: x17+x38 <=1 
C618: x17+x40 <=1 
C619: x17+x41-y17_41 <=1 
C620: x17+x43-y17_43 <=1 
C621: x17+x45-y17_45 <=1 
C622: x17+x46-y17_46 <=1 
C623: x17+x47 <=1 
C624: x17+x50-y17_50 <=1 
C625: x17+x51 <=1 
C626: x17+x53-y17_53 <=1 
C627: x17+x54-y17_54 <=1 
C628: x17+x55 <=1 
C629: x17+x56-y17_56 <=1 
C630: x17+x57 <=1 
C631: x17+x59 <=1 
C632: x17+x60-y17_60 <=1 
C633: x17+x61 <=1 
C634: x17+x62 <=1 
C635: x17+x63 <=1 
C636: x17+x64-y17_64 <=1 
C637: x17+x66-y17_66 <=1 
C638: x17+x67 <=1 
C639: x18+x19-y18_19 <=1 
C640: x18+x20-y18_20 <=1 
C641: x18+x21-y18_21 <=1 
C642: x18+x22-y18_22 <=1 
C643: x18+x24-y18_24 <=1 
C644: x18+x26 <=1 
C645: x18+x27 <=1 
C646: x18+x28-y18_28 <=1 
C647: x18+x31-y18_31 <=1 
C648: x18+x33-y18_33 <=1 
C649: x18+x34-y18_34 <=1 
C650: x18+x35 <=1 
C651: x18+x36-y18_36 <=1 
C652: x18+x38-y18_38 <=1 
C653: x18+x39 <=1 
C654: x18+x41-y18_41 <=1 
C655: x18+x42 <=1 
C656: x18+x43 <=1 
C657: x18+x44 <=1 
C658: x18+x46-y18_46 <=1 
C659: x18+x47-y18_47 <=1 
C660: x18+x50 <=1 
C661: x18+x51 <=1 
C662: x18+x52 <=1 
C663: x18+x54-y18_54 <=1 
C664: x18+x55 <=1 
C665: x18+x56-y18_56 <=1 
C666: x18+x57-y18_57 <=1 
C667: x18+x60 <=1 
C668: x18+x63-y18_63 <=1 
C669: x18+x65-y18_65 <=1 
C670: x18+x67 <=1 
C671: x18+x68-y18_68 <=1 
C672: x18+x69-y18_69 <=1 
C673: x19+x20-y19_20 <=1 
C674: x19+x21-y19_21 <=1 
C675: x19+x22-y19_22 <=1 
C676: x19+x23 <=1 
C677: x19+x24 <=1 
C678: x19+x25-y19_25 <=1 
C679: x19+x26 <=1 
C680: x19+x27-y19_27 <=1 
C681: x19+x29 <=1 
C682: x19+x33-y19_33 <=1 
C683: x19+x36 <=1 
C684: x19+x37-y19_37 <=1 
C685: x19+x38-y19_38 <=1 
C686: x19+x39-y19_39 <=1 
C687: x19+x41-y19_41 <=1 
C688: x19+x43 <=1 
C689: x19+x44 <=1 
C690: x19+x47-y19_47 <=1 
C691: x19+x50 <=1 
C692: x19+x51-y19_51 <=1 
C693: x19+x53-y19_53 <=1 
C694: x19+x54-y19_54 <=1 
C695: x19+x60 <=1 
C696: x19+x61-y19_61 <=1 
C697: x19+x62-y19_62 <=1 
C698: x19+x67-y19_67 <=1 
C699: x19+x68 <=1 
C700: x19+x69 <=1 
C701: x20+x21-y20_21 <=1 
C702: x20+x22-y20_22 <=1 
C703: x20+x24-y20_24 <=1 
C704: x20+x28 <=1 
C705: x20+x29-y20_29 <=1 
C706: x20+x30 <=1 
C707: x20+x32 <=1 
C708: x20+x33-y20_33 <=1 
C709: x20+x34-y20_34 <=1 
C710: x20+x35 <=1 
C711: x20+x36 <=1 
C712: x20+x39-y20_39 <=1 
C713: x20+x40-y20_40 <=1 
C714: x20+x43-y20_43 <=1 
C715: x20+x45 <=1 
C716: x20+x53-y20_53 <=1 
C717: x20+x54 <=1 
C718: x20+x57 <=1 
C719: x20+x58-y20_58 <=1 
C720: x20+x59 <=1 
C721: x20+x60-y20_60 <=1 
C722: x20+x61 <=1 
C723: x20+x62 <=1 
C724: x20+x63 <=1 
C725: x20+x64 <=1 
C726: x20+x67-y20_67 <=1 
C727: x20+x68 <=1 
C728: x21+x22-y21_22 <=1 
C729: x21+x24 <=1 
C730: x21+x26 <=1 
C731: x21+x27-y21_27 <=1 
C732: x21+x29-y21_29 <=1 
C733: x21+x30 <=1 
C734: x21+x31 <=1 
C735: x21+x32-y21_32 <=1 
C736: x21+x33 <=1 
C737: x21+x34-y21_34 <=1 
C738: x21+x35-y21_35 <=1 
C739: x21+x36-y21_36 <=1 
C740: x21+x37 <=1 
C741: x21+x38 <=1 
C742: x21+x39 <=1 
C743: x21+x40-y21_40 <=1 
C744: x21+x41-y21_41 <=1 
C745: x21+x43-y21_43 <=1 
C746: x21+x47 <=1 
C747: x21+x48-y21_48 <=1 
C748: x21+x50-y21_50 <=1 
C749: x21+x52 <=1 
C750: x21+x53-y21_53 <=1 
C751: x21+x55-y21_55 <=1 
C752: x21+x57 <=1 
C753: x21+x58 <=1 
C754: x21+x61-y21_61 <=1 
C755: x21+x62-y21_62 <=1 
C756: x21+x63-y21_63 <=1 
C757: x21+x64-y21_64 <=1 
C758: x21+x65 <=1 
C759: x21+x66-y21_66 <=1 
C760: x21+x67 <=1 
C761: x21+x68-y21_68 <=1 
C762: x21+x69-y21_69 <=1 
C763: x22+x24 <=1 
C764: x22+x25 <=1 
C765: x22+x26 <=1 
C766: x22+x27 <=1 
C767: x22+x28-y22_28 <=1 
C768: x22+x29 <=1 
C769: x22+x30-y22_30 <=1 
C770: x22+x31 <=1 
C771: x22+x32-y22_32 <=1 
C772: x22+x36 <=1 
C773: x22+x38 <=1 
C774: x22+x39 <=1 
C775: x22+x40 <=1 
C776: x22+x41-y22_41 <=1 
C777: x22+x42 <=1 
C778: x22+x44 <=1 
C779: x22+x46 <=1 
C780: x22+x49 <=1 
C781: x22+x54-y22_54 <=1 
C782: x22+x56 <=1 
C783: x22+x57 <=1 
C784: x22+x58-y22_58 <=1 
C785: x22+x61 <=1 
C786: x22+x62 <=1 
C787: x22+x64 <=1 
C788: x22+x67-y22_67 <=1 
C789: x22+x68-y22_68 <=1 
C790: x23+x28-y23_28 <=1 
C791: x23+x29 <=1 
C792: x23+x31 <=1 
C793: x23+x34-y23_34 <=1 
C794: x23+x36 <=1 
C795: x23+x38 <=1 
C796: x23+x41-y23_41 <=1 
C797: x23+x42-y23_42 <=1 
C798: x23+x44-y23_44 <=1 
C799: x23+x45-y23_45 <=1 
C800: x23+x50 <=1 
C801: x23+x53-y23_53 <=1 
C802: x23+x54-y23_54 <=1 
C803: x23+x56 <=1 
C804: x23+x57-y23_57 <=1 
C805: x23+x58 <=1 
C806: x23+x59 <=1 
C807: x23+x63 <=1 
C808: x23+x64 <=1 
C809: x23+x67 <=1 
C810: x23+x68-y23_68 <=1 
C811: x24+x27 <=1 
C812: x24+x28-y24_28 <=1 
C813: x24+x29 <=1 
C814: x24+x30-y24_30 <=1 
C815: x24+x35-y24_35 <=1 
C816: x24+x36 <=1 
C817: x24+x38 <=1 
C818: x24+x42-y24_42 <=1 
C819: x24+x45-y24_45 <=1 
C820: x24+x47 <=1 
C821: x24+x48-y24_48 <=1 
C822: x24+x50 <=1 
C823: x24+x52-y24_52 <=1 
C824: x24+x56-y24_56 <=1 
C825: x24+x57 <=1 
C826: x24+x58-y24_58 <=1 
C827: x24+x59-y24_59 <=1 
C828: x24+x60-y24_60 <=1 
C829: x24+x61-y24_61 <=1 
C830: x24+x63-y24_63 <=1 
C831: x24+x66-y24_66 <=1 
C832: x24+x69-y24_69 <=1 
C833: x25+x27 <=1 
C834: x25+x28-y25_28 <=1 
C835: x25+x29-y25_29 <=1 
C836: x25+x30-y25_30 <=1 
C837: x25+x31-y25_31 <=1 
C838: x25+x32 <=1 
C839: x25+x34-y25_34 <=1 
C840: x25+x35 <=1 
C841: x25+x36 <=1 
C842: x25+x38 <=1 
C843: x25+x39 <=1 
C844: x25+x40 <=1 
C845: x25+x42-y25_42 <=1 
C846: x25+x43-y25_43 <=1 
C847: x25+x44-y25_44 <=1 
C848: x25+x45-y25_45 <=1 
C849: x25+x46-y25_46 <=1 
C850: x25+x48-y25_48 <=1 
C851: x25+x50-y25_50 <=1 
C852: x25+x51-y25_51 <=1 
C853: x25+x53 <=1 
C854: x25+x54 <=1 
C855: x25+x56-y25_56 <=1 
C856: x25+x58 <=1 
C857: x25+x59-y25_59 <=1 
C858: x25+x62 <=1 
C859: x25+x63-y25_63 <=1 
C860: x25+x66 <=1 
C861: x25+x67-y25_67 <=1 
C862: x25+x68 <=1 
C863: x26+x29 <=1 
C864: x26+x30 <=1 
C865: x26+x31 <=1 
C866: x26+x36-y26_36 <=1 
C867: x26+x37-y26_37 <=1 
C868: x26+x38 <=1 
C869: x26+x40-y26_40 <=1 
C870: x26+x41 <=1 
C871: x26+x43-y26_43 <=1 
C872: x26+x44 <=1 
C873: x26+x45-y26_45 <=1 
C874: x26+x48-y26_48 <=1 
C875: x26+x49-y26_49 <=1 
C876: x26+x53-y26_53 <=1 
C877: x26+x54 <=1 
C878: x26+x55-y26_55 <=1 
C879: x26+x56-y26_56 <=1 
C880: x26+x57 <=1 
C881: x26+x58-y26_58 <=1 
C882: x26+x59 <=1 
C883: x26+x60-y26_60 <=1 
C884: x26+x64 <=1 
C885: x26+x66 <=1 
C886: x26+x67 <=1 
C887: x26+x68-y26_68 <=1 
C888: x27+x28-y27_28 <=1 
C889: x27+x29 <=1 
C890: x27+x30-y27_30 <=1 
C891: x27+x31-y27_31 <=1 
C892: x27+x33-y27_33 <=1 
C893: x27+x36-y27_36 <=1 
C894: x27+x38-y27_38 <=1 
C895: x27+x39-y27_39 <=1 
C896: x27+x42-y27_42 <=1 
C897: x27+x43 <=1 
C898: x27+x46-y27_46 <=1 
C899: x27+x48-y27_48 <=1 
C900: x27+x49 <=1 
C901: x27+x51 <=1 
C902: x27+x53 <=1 
C903: x27+x54 <=1 
C904: x27+x55-y27_55 <=1 
C905: x27+x59-y27_59 <=1 
C906: x27+x61-y27_61 <=1 
C907: x27+x62 <=1 
C908: x27+x64-y27_64 <=1 
C909: x27+x66 <=1 
C910: x27+x67 <=1 
C911: x28+x30-y28_30 <=1 
C912: x28+x32 <=1 
C913: x28+x34 <=1 
C914: x28+x35-y28_35 <=1 
C915: x28+x37-y28_37 <=1 
C916: x28+x39-y28_39 <=1 
C917: x28+x40-y28_40 <=1 
C918: x28+x41-y28_41 <=1 
C919: x28+x42-y28_42 <=1 
C920: x28+x43 <=1 
C921: x28+x48 <=1 
C922: x28+x50 <=1 
C923: x28+x52 <=1 
C924: x28+x55 <=1 
C925: x28+x56 <=1 
C926: x28+x60-y28_60 <=1 
C927: x28+x61-y28_61 <=1 
C928: x28+x63 <=1 
C929: x28+x65 <=1 
C930: x28+x66 <=1 
C931: x28+x68-y28_68 <=1 
C932: x29+x30-y29_30 <=1 
C933: x29+x31-y29_31 <=1 
C934: x29+x35-y29_35 <=1 
C935: x29+x44 <=1 
C936: x29+x45 <=1 
C937: x29+x46 <=1 
C938: x29+x48 <=1 
C939: x29+x49-y29_49 <=1 
C940: x29+x50-y29_50 <=1 
C941: x29+x52-y29_52 <=1 
C942: x29+x53 <=1 
C943: x29+x54-y29_54 <=1 
C944: x29+x55 <=1 
C945: x29+x56-y29_56 <=1 
C946: x29+x57 <=1 
C947: x29+x59-y29_59 <=1 
C948: x29+x60 <=1 
C949: x29+x61 <=1 
C950: x29+x62 <=1 
C951: x29+x63 <=1 
C952: x29+x64 <=1 
C953: x29+x66 <=1 
C954: x29+x67 <=1 
C955: x29+x68 <=1 
C956: x29+x69-y29_69 <=1 
C957: x30+x32-y30_32 <=1 
C958: x30+x33-y30_33 <=1 
C959: x30+x35-y30_35 <=1 
C960: x30+x36 <=1 
C961: x30+x38 <=1 
C962: x30+x39 <=1 
C963: x30+x40-y30_40 <=1 
C964: x30+x42 <=1 
C965: x30+x43-y30_43 <=1 
C966: x30+x44-y30_44 <=1 
C967: x30+x45-y30_45 <=1 
C968: x30+x46 <=1 
C969: x30+x49-y30_49 <=1 
C970: x30+x50 <=1 
C971: x30+x51-y30_51 <=1 
C972: x30+x53 <=1 
C973: x30+x54-y30_54 <=1 
C974: x30+x55-y30_55 <=1 
C975: x30+x57-y30_57 <=1 
C976: x30+x59 <=1 
C977: x30+x60 <=1 
C978: x30+x61-y30_61 <=1 
C979: x30+x62 <=1 
C980: x30+x63-y30_63 <=1 
C981: x30+x65 <=1 
C982: x30+x66 <=1 
C983: x31+x34 <=1 
C984: x31+x35-y31_35 <=1 
C985: x31+x37 <=1 
C986: x31+x41-y31_41 <=1 
C987: x31+x43-y31_43 <=1 
C988: x31+x47 <=1 
C989: x31+x48-y31_48 <=1 
C990: x31+x49-y31_49 <=1 
C991: x31+x51 <=1 
C992: x31+x54-y31_54 <=1 
C993: x31+x55-y31_55 <=1 
C994: x31+x57-y31_57 <=1 
C995: x31+x58 <=1 
C996: x31+x62 <=1 
C997: x31+x63 <=1 
C998: x31+x66 <=1 
C999: x31+x68-y31_68 <=1 
C1000: x31+x69-y31_69 <=1 
C1001: x32+x34-y32_34 <=1 
C1002: x32+x35-y32_35 <=1 
C1003: x32+x37-y32_37 <=1 
C1004: x32+x39-y32_39 <=1 
C1005: x32+x45-y32_45 <=1 
C1006: x32+x47-y32_47 <=1 
C1007: x32+x50-y32_50 <=1 
C1008: x32+x51 <=1 
C1009: x32+x52-y32_52 <=1 
C1010: x32+x54-y32_54 <=1 
C1011: x32+x55 <=1 
C1012: x32+x59-y32_59 <=1 
C1013: x32+x60 <=1 
C1014: x32+x64-y32_64 <=1 
C1015: x32+x66 <=1 
C1016: x32+x67 <=1 
C1017: x33+x34 <=1 
C1018: x33+x35 <=1 
C1019: x33+x36 <=1 
C1020: x33+x37 <=1 
C1021: x33+x40 <=1 
C1022: x33+x41 <=1 
C1023: x33+x42 <=1 
C1024: x33+x43 <=1 
C1025: x33+x44-y33_44 <=1 
C1026: x33+x50-y33_50 <=1 
C1027: x33+x51 <=1 
C1028: x33+x52 <=1 
C1029: x33+x53-y33_53 <=1 
C1030: x33+x55 <=1 
C1031: x33+x57 <=1 
C1032: x33+x58-y33_58 <=1 
C1033: x33+x59-y33_59 <=1 
C1034: x33+x60 <=1 
C1035: x33+x61-y33_61 <=1 
C1036: x33+x62 <=1 
C1037: x33+x63 <=1 
C1038: x33+x65 <=1 
C1039: x33+x67-y33_67 <=1 
C1040: x33+x68 <=1 
C1041: x34+x38 <=1 
C1042: x34+x39-y34_39 <=1 
C1043: x34+x40 <=1 
C1044: x34+x41-y34_41 <=1 
C1045: x34+x43-y34_43 <=1 
C1046: x34+x44-y34_44 <=1 
C1047: x34+x45-y34_45 <=1 
C1048: x34+x46-y34_46 <=1 
C1049: x34+x47-y34_47 <=1 
C1050: x34+x48 <=1 
C1051: x34+x49-y34_49 <=1 
C1052: x34+x53 <=1 
C1053: x34+x54 <=1 
C1054: x34+x57-y34_57 <=1 
C1055: x34+x60-y34_60 <=1 
C1056: x34+x61 <=1 
C1057: x34+x62-y34_62 <=1 
C1058: x34+x63 <=1 
C1059: x34+x65-y34_65 <=1 
C1060: x34+x66 <=1 
C1061: x35+x37 <=1 
C1062: x35+x39 <=1 
C1063: x35+x40 <=1 
C1064: x35+x41-y35_41 <=1 
C1065: x35+x42-y35_42 <=1 
C1066: x35+x44 <=1 
C1067: x35+x45-y35_45 <=1 
C1068: x35+x46-y35_46 <=1 
C1069: x35+x48 <=1 
C1070: x35+x49 <=1 
C1071: x35+x50-y35_50 <=1 
C1072: x35+x51 <=1 
C1073: x35+x52-y35_52 <=1 
C1074: x35+x54 <=1 
C1075: x35+x55 <=1 
C1076: x35+x58 <=1 
C1077: x35+x59-y35_59 <=1 
C1078: x35+x62 <=1 
C1079: x35+x63-y35_63 <=1 
C1080: x35+x65-y35_65 <=1 
C1081: x35+x68 <=1 
C1082: x35+x69 <=1 
C1083: x36+x39 <=1 
C1084: x36+x40 <=1 
C1085: x36+x42-y36_42 <=1 
C1086: x36+x43 <=1 
C1087: x36+x45-y36_45 <=1 
C1088: x36+x50 <=1 
C1089: x36+x51-y36_51 <=1 
C1090: x36+x54-y36_54 <=1 
C1091: x36+x56 <=1 
C1092: x36+x57 <=1 
C1093: x36+x61-y36_61 <=1 
C1094: x36+x62 <=1 
C1095: x36+x63-y36_63 <=1 
C1096: x36+x65-y36_65 <=1 
C1097: x36+x66-y36_66 <=1 
C1098: x36+x68-y36_68 <=1 
C1099: x37+x38-y37_38 <=1 
C1100: x37+x40-y37_40 <=1 
C1101: x37+x41-y37_41 <=1 
C1102: x37+x42-y37_42 <=1 
C1103: x37+x43-y37_43 <=1 
C1104: x37+x44 <=1 
C1105: x37+x45 <=1 
C1106: x37+x47 <=1 
C1107: x37+x49-y37_49 <=1 
C1108: x37+x51-y37_51 <=1 
C1109: x37+x52 <=1 
C1110: x37+x54 <=1 
C1111: x37+x57-y37_57 <=1 
C1112: x37+x58 <=1 
C1113: x37+x60-y37_60 <=1 
C1114: x37+x61-y37_61 <=1 
C1115: x37+x63 <=1 
C1116: x37+x65-y37_65 <=1 
C1117: x37+x66-y37_66 <=1 
C1118: x37+x69-y37_69 <=1 
C1119: x38+x39 <=1 
C1120: x38+x41 <=1 
C1121: x38+x43 <=1 
C1122: x38+x45 <=1 
C1123: x38+x48 <=1 
C1124: x38+x49-y38_49 <=1 
C1125: x38+x50-y38_50 <=1 
C1126: x38+x51 <=1 
C1127: x38+x52 <=1 
C1128: x38+x54 <=1 
C1129: x38+x56 <=1 
C1130: x38+x64-y38_64 <=1 
C1131: x38+x68 <=1 
C1132: x38+x69-y38_69 <=1 
C1133: x39+x40 <=1 
C1134: x39+x41 <=1 
C1135: x39+x43-y39_43 <=1 
C1136: x39+x45 <=1 
C1137: x39+x46-y39_46 <=1 
C1138: x39+x48-y39_48 <=1 
C1139: x39+x50-y39_50 <=1 
C1140: x39+x51 <=1 
C1141: x39+x52-y39_52 <=1 
C1142: x39+x54 <=1 
C1143: x39+x57-y39_57 <=1 
C1144: x39+x58-y39_58 <=1 
C1145: x39+x59 <=1 
C1146: x39+x60 <=1 
C1147: x39+x61-y39_61 <=1 
C1148: x39+x62 <=1 
C1149: x39+x65 <=1 
C1150: x39+x66 <=1 
C1151: x39+x68 <=1 
C1152: x39+x69 <=1 
C1153: x40+x43 <=1 
C1154: x40+x44 <=1 
C1155: x40+x45-y40_45 <=1 
C1156: x40+x46 <=1 
C1157: x40+x47-y40_47 <=1 
C1158: x40+x48-y40_48 <=1 
C1159: x40+x50 <=1 
C1160: x40+x51-y40_51 <=1 
C1161: x40+x52-y40_52 <=1 
C1162: x40+x53 <=1 
C1163: x40+x54-y40_54 <=1 
C1164: x40+x55-y40_55 <=1 
C1165: x40+x56-y40_56 <=1 
C1166: x40+x57-y40_57 <=1 
C1167: x40+x58-y40_58 <=1 
C1168: x40+x60 <=1 
C1169: x40+x61 <=1 
C1170: x40+x62 <=1 
C1171: x40+x63 <=1 
C1172: x40+x64 <=1 
C1173: x40+x65 <=1 
C1174: x40+x66 <=1 
C1175: x40+x67-y40_67 <=1 
C1176: x40+x68 <=1 
C1177: x41+x42-y41_42 <=1 
C1178: x41+x43 <=1 
C1179: x41+x46 <=1 
C1180: x41+x47 <=1 
C1181: x41+x48 <=1 
C1182: x41+x49 <=1 
C1183: x41+x52 <=1 
C1184: x41+x53-y41_53 <=1 
C1185: x41+x54 <=1 
C1186: x41+x56 <=1 
C1187: x41+x58-y41_58 <=1 
C1188: x41+x59-y41_59 <=1 
C1189: x41+x60-y41_60 <=1 
C1190: x41+x61-y41_61 <=1 
C1191: x41+x62-y41_62 <=1 
C1192: x41+x63-y41_63 <=1 
C1193: x41+x64 <=1 
C1194: x41+x65 <=1 
C1195: x41+x66-y41_66 <=1 
C1196: x41+x67 <=1 
C1197: x41+x68 <=1 
C1198: x42+x43-y42_43 <=1 
C1199: x42+x44 <=1 
C1200: x42+x45-y42_45 <=1 
C1201: x42+x46 <=1 
C1202: x42+x47 <=1 
C1203: x42+x48 <=1 
C1204: x42+x49-y42_49 <=1 
C1205: x42+x50 <=1 
C1206: x42+x51 <=1 
C1207: x42+x52-y42_52 <=1 
C1208: x42+x55 <=1 
C1209: x42+x57 <=1 
C1210: x42+x58-y42_58 <=1 
C1211: x42+x59 <=1 
C1212: x42+x61-y42_61 <=1 
C1213: x42+x62 <=1 
C1214: x42+x63 <=1 
C1215: x42+x65-y42_65 <=1 
C1216: x42+x66-y42_66 <=1 
C1217: x42+x69-y42_69 <=1 
C1218: x43+x45 <=1 
C1219: x43+x46-y43_46 <=1 
C1220: x43+x47 <=1 
C1221: x43+x51 <=1 
C1222: x43+x54 <=1 
C1223: x43+x55 <=1 
C1224: x43+x56-y43_56 <=1 
C1225: x43+x57 <=1 
C1226: x43+x58 <=1 
C1227: x43+x59-y43_59 <=1 
C1228: x43+x60 <=1 
C1229: x43+x62 <=1 
C1230: x43+x65 <=1 
C1231: x43+x66 <=1 
C1232: x43+x67 <=1 
C1233: x43+x68-y43_68 <=1 
C1234: x44+x46-y44_46 <=1 
C1235: x44+x47 <=1 
C1236: x44+x48-y44_48 <=1 
C1237: x44+x49-y44_49 <=1 
C1238: x44+x50 <=1 
C1239: x44+x51-y44_51 <=1 
C1240: x44+x53-y44_53 <=1 
C1241: x44+x54 <=1 
C1242: x44+x56 <=1 
C1243: x44+x57-y44_57 <=1 
C1244: x44+x59-y44_59 <=1 
C1245: x44+x60-y44_60 <=1 
C1246: x44+x62-y44_62 <=1 
C1247: x44+x65 <=1 
C1248: x44+x68-y44_68 <=1 
C1249: x44+x69 <=1 
C1250: x45+x46 <=1 
C1251: x45+x48-y45_48 <=1 
C1252: x45+x50 <=1 
C1253: x45+x53-y45_53 <=1 
C1254: x45+x54 <=1 
C1255: x45+x57 <=1 
C1256: x45+x58-y45_58 <=1 
C1257: x45+x60-y45_60 <=1 
C1258: x45+x61-y45_61 <=1 
C1259: x45+x62-y45_62 <=1 
C1260: x45+x64-y45_64 <=1 
C1261: x45+x68-y45_68 <=1 
C1262: x46+x47 <=1 
C1263: x46+x49-y46_49 <=1 
C1264: x46+x53-y46_53 <=1 
C1265: x46+x54-y46_54 <=1 
C1266: x46+x55-y46_55 <=1 
C1267: x46+x56-y46_56 <=1 
C1268: x46+x57 <=1 
C1269: x46+x59 <=1 
C1270: x46+x62-y46_62 <=1 
C1271: x46+x63 <=1 
C1272: x46+x66-y46_66 <=1 
C1273: x47+x49 <=1 
C1274: x47+x53-y47_53 <=1 
C1275: x47+x54 <=1 
C1276: x47+x55 <=1 
C1277: x47+x57-y47_57 <=1 
C1278: x47+x59-y47_59 <=1 
C1279: x47+x60 <=1 
C1280: x47+x61-y47_61 <=1 
C1281: x47+x62 <=1 
C1282: x47+x63-y47_63 <=1 
C1283: x47+x65 <=1 
C1284: x47+x66 <=1 
C1285: x47+x67-y47_67 <=1 
C1286: x47+x69 <=1 
C1287: x48+x50 <=1 
C1288: x48+x53-y48_53 <=1 
C1289: x48+x55-y48_55 <=1 
C1290: x48+x56-y48_56 <=1 
C1291: x48+x57-y48_57 <=1 
C1292: x48+x58-y48_58 <=1 
C1293: x48+x59 <=1 
C1294: x48+x61 <=1 
C1295: x48+x62 <=1 
C1296: x48+x64-y48_64 <=1 
C1297: x48+x65 <=1 
C1298: x48+x67 <=1 
C1299: x48+x68 <=1 
C1300: x49+x51 <=1 
C1301: x49+x52 <=1 
C1302: x49+x53-y49_53 <=1 
C1303: x49+x58-y49_58 <=1 
C1304: x49+x61-y49_61 <=1 
C1305: x49+x63 <=1 
C1306: x49+x66-y49_66 <=1 
C1307: x49+x67 <=1 
C1308: x49+x68-y49_68 <=1 
C1309: x49+x69 <=1 
C1310: x50+x52 <=1 
C1311: x50+x54 <=1 
C1312: x50+x55-y50_55 <=1 
C1313: x50+x56 <=1 
C1314: x50+x57-y50_57 <=1 
C1315: x50+x59-y50_59 <=1 
C1316: x50+x60 <=1 
C1317: x50+x61-y50_61 <=1 
C1318: x50+x63-y50_63 <=1 
C1319: x50+x64-y50_64 <=1 
C1320: x50+x66-y50_66 <=1 
C1321: x50+x67-y50_67 <=1 
C1322: x50+x68 <=1 
C1323: x50+x69-y50_69 <=1 
C1324: x51+x52 <=1 
C1325: x51+x53 <=1 
C1326: x51+x54-y51_54 <=1 
C1327: x51+x55 <=1 
C1328: x51+x56-y51_56 <=1 
C1329: x51+x59 <=1 
C1330: x51+x62-y51_62 <=1 
C1331: x51+x63 <=1 
C1332: x51+x64 <=1 
C1333: x51+x66-y51_66 <=1 
C1334: x51+x69 <=1 
C1335: x52+x54-y52_54 <=1 
C1336: x52+x57-y52_57 <=1 
C1337: x52+x58 <=1 
C1338: x52+x59 <=1 
C1339: x52+x61 <=1 
C1340: x52+x63-y52_63 <=1 
C1341: x52+x67-y52_67 <=1 
C1342: x52+x69-y52_69 <=1 
C1343: x53+x54-y53_54 <=1 
C1344: x53+x55-y53_55 <=1 
C1345: x53+x60 <=1 
C1346: x53+x61 <=1 
C1347: x53+x64 <=1 
C1348: x53+x69 <=1 
C1349: x54+x55 <=1 
C1350: x54+x60-y54_60 <=1 
C1351: x54+x61-y54_61 <=1 
C1352: x54+x62-y54_62 <=1 
C1353: x54+x63 <=1 
C1354: x54+x66-y54_66 <=1 
C1355: x55+x57 <=1 
C1356: x55+x58 <=1 
C1357: x55+x59-y55_59 <=1 
C1358: x55+x60 <=1 
C1359: x55+x61-y55_61 <=1 
C1360: x55+x62 <=1 
C1361: x55+x66-y55_66 <=1 
C1362: x55+x67 <=1 
C1363: x55+x68 <=1 
C1364: x56+x58-y56_58 <=1 
C1365: x56+x59-y56_59 <=1 
C1366: x56+x62 <=1 
C1367: x56+x63-y56_63 <=1 
C1368: x56+x64-y56_64 <=1 
C1369: x56+x65 <=1 
C1370: x56+x69-y56_69 <=1 
C1371: x57+x59 <=1 
C1372: x57+x60-y57_60 <=1 
C1373: x57+x61-y57_61 <=1 
C1374: x57+x62-y57_62 <=1 
C1375: x57+x64 <=1 
C1376: x57+x65-y57_65 <=1 
C1377: x58+x59 <=1 
C1378: x58+x60-y58_60 <=1 
C1379: x58+x62 <=1 
C1380: x58+x63-y58_63 <=1 
C1381: x58+x64 <=1 
C1382: x58+x69 <=1 
C1383: x59+x60 <=1 
C1384: x59+x61-y59_61 <=1 
C1385: x59+x67 <=1 
C1386: x60+x61-y60_61 <=1 
C1387: x60+x63 <=1 
C1388: x60+x64-y60_64 <=1 
C1389: x60+x66 <=1 
C1390: x60+x67-y60_67 <=1 
C1391: x60+x69 <=1 
C1392: x61+x62-y61_62 <=1 
C1393: x61+x64 <=1 
C1394: x61+x66-y61_66 <=1 
C1395: x62+x63 <=1 
C1396: x62+x64 <=1 
C1397: x62+x65-y62_65 <=1 
C1398: x62+x66 <=1 
C1399: x62+x69 <=1 
C1400: x63+x64 <=1 
C1401: x63+x65 <=1 
C1402: x63+x67 <=1 
C1403: x63+x68-y63_68 <=1 
C1404: x64+x65 <=1 
C1405: x64+x67-y64_67 <=1 
C1406: x64+x68-y64_68 <=1 
C1407: x65+x66-y65_66 <=1 
C1408: x65+x68-y65_68 <=1 
C1409: x65+x69-y65_69 <=1 
C1410: x66+x69-y66_69 <=1 
C1411: x67+x68-y67_68 <=1 
C1412: x67+x69-y67_69 <=1 
C1413: x68+x69 <=1 

binary
x0
x1
x2
x3
x4
x5
x6
x7
x8
x9
x10
x11
x12
x13
x14
x15
x16
x17
x18
x19
x20
x21
x22
x23
x24
x25
x26
x27
x28
x29
x30
x31
x32
x33
x34
x35
x36
x37
x38
x39
x40
x41
x42
x43
x44
x45
x46
x47
x48
x49
x50
x51
x52
x53
x54
x55
x56
x57
x58
x59
x60
x61
x62
x63
x64
x65
x66
x67
x68
x69
